
Gurobi 10.0.1 (win64) logging started Thu May 18 16:25:12 2023

Set parameter LogFile to value "results/log/Fattahi_setup_04_modificated.log"
Gurobi Optimizer version 10.0.1 build v10.0.1rc0 (win64)

CPU model: AMD Ryzen 7 3700X 8-Core Processor, instruction set [SSE2|AVX|AVX2]
Thread count: 8 physical cores, 16 logical processors, using up to 16 threads

Optimize a model with 89 rows, 57 columns and 334 nonzeros
Model fingerprint: 0xbf58f65f
Variable types: 0 continuous, 57 integer (46 binary)
Coefficient statistics:
  Matrix range     [1e+00, 1e+09]
  Objective range  [1e+00, 1e+00]
  Bounds range     [1e+00, 1e+00]
  RHS range        [1e+00, 3e+09]
Warning: Model contains large matrix coefficients
Warning: Model contains large rhs
         Consider reformulating model or setting NumericFocus parameter
         to avoid numerical issues.
Presolve removed 29 rows and 29 columns
Presolve time: 0.00s
Presolved: 60 rows, 28 columns, 246 nonzeros
Variable types: 0 continuous, 28 integer (18 binary)

Root relaxation: objective 6.940000e+02, 9 iterations, 0.00 seconds (0.00 work units)

    Nodes    |    Current Node    |     Objective Bounds      |     Work
 Expl Unexpl |  Obj  Depth IntInf | Incumbent    BestBd   Gap | It/Node Time

     0     0  694.00000    0    6          -  694.00000      -     -    0s
H    0     0                    1169.0000000  694.00000  40.6%     -    0s
H    0     0                     874.0000000  694.00000  20.6%     -    0s
     0     0  703.00000    0    7  874.00000  703.00000  19.6%     -    0s
     0     0  720.00000    0    7  874.00000  720.00000  17.6%     -    0s
     0     0  746.00000    0   12  874.00000  746.00000  14.6%     -    0s
     0     0  746.00000    0   12  874.00000  746.00000  14.6%     -    0s

Cutting planes:
  Learned: 1
  Implied bound: 1
  MIR: 2
  Flow cover: 4
  Mod-K: 1

Explored 1 nodes (28 simplex iterations) in 0.01 seconds (0.00 work units)
Thread count was 16 (of 16 available processors)

Solution count 2: 874 1169 

Optimal solution found (tolerance 1.00e-04)
Best objective 8.740000000000e+02, best bound 8.740000000000e+02, gap 0.0000%
Warning: variable name "y[job:0, stage:0, machine:1]" has a space
Warning: constraint name "precedence between 0,1 to 0,0 if x_[j,l,h,z,i]=1" has a space
Warning: to let Gurobi read it back, use rlp format
Warning: variable name "y[job:0, stage:0, machine:1]" has a space
Warning: constraint name "precedence between 0,1 to 0,0 if x_[j,l,h,z,i]=1" has a space
Warning: default variable names used to write mps file
Warning: default constraint names used to write mps file
Warning: variable name "y[job:0, stage:0, machine:1]" has a space
Warning: default variable names used to write solution file
